<number of tasks>
89

<cycle time>
79

<task times>
1 28
2 17
3 7
4 10
5 12
6 16
7 13
8 8
9 13
10 24
11 16
12 24
13 12
14 20
15 22
16 22
17 22
18 47
19 6
20 12
21 6
22 22
23 7
24 14
25 68
26 15
27 8
28 74
29 32
30 11
31 18
32 15
33 42
34 27
35 38
36 38
37 26
38 35
39 31
40 8
41 14
42 8
43 8
44 8
45 17
46 7
47 19
48 12
49 24
50 26
51 22
52 14
53 27
54 60
55 4
56 2
57 1
58 9
59 5
60 6
61 7
62 12
63 2
64 11
65 14
66 6
67 21
68 14
69 1
70 6
71 21
72 11
73 14
74 28
75 12
76 11
77 30
78 22
79 14
80 31
81 18
82 16
83 7
84 38
85 8
86 31
87 29
88 12
89 18

<precedence relations>
1,2
2,3
3,4
4,5
4,6
4,7
4,8
4,9
5,10
6,11
7,12
8,18
9,18
10,14
11,12
12,13
13,14
14,15
14,16
15,17
16,54
17,18
18,19
18,20
19,22
20,21
20,28
21,54
22,23
23,24
24,25
25,26
25,27
25,29
26,37
27,33
28,29
29,31
30,54
31,32
32,33
33,34
34,35
35,36
35,37
36,38
37,38
38,39
39,40
39,41
39,42
39,43
40,44
41,53
42,53
43,45
44,52
45,46
46,47
47,48
47,49
49,50
50,51
51,52
52,53
53,68
53,69
53,70
53,71
54,55
55,56
56,57
57,58
57,59
57,60
57,61
57,62
57,63
57,64
57,65
57,66
58,67
59,67
60,67
61,67
62,67
63,67
64,67
65,67
66,67
67,73
68,72
69,72
70,72
71,73
72,78
72,80
73,74
74,75
74,76
75,77
76,81
77,78
78,79
79,81
80,81
81,82
81,84
81,85
82,83
83,86
84,86
85,86
86,87
87,88
87,89

<setup times forward>
4,5:1
4,7:1
4,9:1
5,6:1
5,8:1
5,9:2
5,10:2
5,30:1
6,5:1
6,7:1
6,9:1
6,10:1
6,11:1
7,6:1
7,8:1
7,9:2
7,10:2
7,30:1
8,5:1
8,7:1
8,9:1
8,10:1
8,11:1
8,12:1
8,13:1
8,14:1
8,15:1
9,5:2
9,6:1
9,7:2
9,8:1
9,11:2
9,12:2
9,13:2
9,16:1
9,17:1
9,18:1
9,30:1
10,6:1
10,7:2
10,8:1
10,11:2
10,12:2
10,13:2
10,30:1
11,8:1
11,9:2
11,10:2
11,30:1
12,8:1
12,9:2
12,10:2
12,30:1
13,8:1
13,9:2
13,10:2
13,14:2
13,30:1
14,8:1
14,16:1
14,30:1
15,8:1
15,16:1
15,17:1
15,30:1
16,9:1
16,15:1
16,25:1
16,26:1
16,27:1
16,29:2
16,31:2
16,32:2
16,33:1
16,34:1
16,35:1
16,36:2
16,37:1
16,38:2
16,40:1
16,41:1
16,42:1
16,44:1
16,47:1
16,48:2
16,49:1
16,50:2
16,51:2
16,52:1
16,53:1
16,68:1
16,71:1
17,9:1
19,58:2
19,60:2
19,61:2
19,62:2
19,63:2
19,64:2
19,65:1
19,66:2
19,67:2
20,25:1
20,26:1
20,27:1
21,25:1
21,26:1
21,27:1
21,29:2
21,31:2
21,32:2
21,33:1
21,34:1
21,35:1
21,36:2
21,37:1
21,38:2
21,40:1
21,41:1
21,42:1
21,44:1
21,47:1
21,48:2
21,49:1
21,50:2
21,51:2
21,52:1
21,53:1
21,68:1
21,71:1
22,58:2
22,60:2
22,61:2
22,62:2
22,63:2
22,64:2
22,65:1
22,66:2
22,67:2
23,58:2
23,60:2
23,61:2
23,62:2
23,63:2
23,64:2
23,65:1
23,66:2
23,67:2
24,25:1
24,58:2
24,60:2
24,61:2
24,62:2
24,63:2
24,64:2
24,65:1
24,66:2
24,67:2
25,16:1
25,20:1
25,21:1
25,28:1
25,29:1
25,30:1
25,54:1
25,55:1
25,56:1
25,57:1
25,58:1
25,59:1
25,60:1
25,61:1
25,62:1
25,63:1
25,64:1
25,65:2
25,66:1
25,67:1
26,16:1
26,20:1
26,21:1
26,28:1
26,29:1
26,30:1
26,31:1
26,32:1
26,33:2
26,34:2
26,36:1
26,54:1
26,55:1
26,56:1
26,57:1
26,58:1
26,59:1
26,60:1
26,61:1
26,62:1
26,63:1
26,64:1
26,65:2
26,66:1
26,67:1
27,16:1
27,20:1
27,21:1
27,28:1
27,29:1
27,30:1
27,31:1
27,32:1
27,33:2
27,54:1
27,55:1
27,56:1
27,57:1
27,58:1
27,59:1
27,60:1
27,61:1
27,62:1
27,63:1
27,64:1
27,65:2
27,66:1
27,67:1
28,25:1
28,26:1
28,27:1
28,29:2
28,58:2
28,60:2
28,61:2
28,62:2
28,63:2
28,64:2
28,65:1
28,66:2
28,67:2
29,16:2
29,21:2
29,26:1
29,27:1
29,30:2
29,54:2
29,55:2
29,56:2
29,57:2
29,59:2
29,65:3
30,5:1
30,7:1
30,9:1
30,10:1
30,11:1
30,12:1
30,13:1
30,14:1
30,15:1
30,25:1
30,26:1
30,27:1
30,29:2
30,31:2
30,32:2
30,33:1
30,34:1
30,35:1
30,36:2
30,37:1
30,38:2
30,40:1
30,41:1
30,42:1
30,44:1
30,47:1
30,48:2
30,49:1
30,50:2
30,51:2
30,52:1
30,53:1
30,68:1
30,71:1
31,16:2
31,21:2
31,26:1
31,27:1
31,30:2
31,54:2
31,55:2
31,56:2
31,57:2
31,59:2
31,65:3
32,16:2
32,21:2
32,26:1
32,27:1
32,30:2
32,33:3
32,54:2
32,55:2
32,56:2
32,57:2
32,59:2
32,65:3
33,16:1
33,21:1
33,26:2
33,30:1
33,54:1
33,55:1
33,56:1
33,57:1
33,58:3
33,59:1
33,60:3
33,61:3
33,62:3
33,63:3
33,64:3
33,66:3
33,67:3
34,16:1
34,21:1
34,26:2
34,30:1
34,35:2
34,54:1
34,55:1
34,56:1
34,57:1
34,58:3
34,59:1
34,60:3
34,61:3
34,62:3
34,63:3
34,64:3
34,66:3
34,67:3
35,16:1
35,21:1
35,30:1
35,36:1
35,54:1
35,55:1
35,56:1
35,57:1
35,58:1
35,59:1
35,60:1
35,61:1
35,62:1
35,63:1
35,64:1
35,65:2
35,66:1
35,67:1
36,16:2
36,21:2
36,26:1
36,30:2
36,37:1
36,54:2
36,55:2
36,56:2
36,57:2
36,59:2
36,65:3
37,16:1
37,21:1
37,30:1
37,36:1
37,38:1
37,54:1
37,55:1
37,56:1
37,57:1
37,58:1
37,59:1
37,60:1
37,61:1
37,62:1
37,63:1
37,64:1
37,65:2
37,66:1
37,67:1
38,16:2
38,21:2
38,30:2
38,39:2
38,54:2
38,55:2
38,56:2
38,57:2
38,59:2
38,65:3
39,40:1
39,41:1
39,42:1
39,58:2
39,60:2
39,61:2
39,62:2
39,63:2
39,64:2
39,65:1
39,66:2
39,67:2
40,16:1
40,21:1
40,30:1
40,43:1
40,45:1
40,46:1
40,48:3
40,50:3
40,51:3
40,54:1
40,55:1
40,56:1
40,57:1
40,58:3
40,59:1
40,60:3
40,61:3
40,62:3
40,63:3
40,64:3
40,66:3
40,67:3
41,16:1
41,21:1
41,30:1
41,43:1
41,45:1
41,46:1
41,48:3
41,50:3
41,51:3
41,54:1
41,55:1
41,56:1
41,57:1
41,58:3
41,59:1
41,60:3
41,61:3
41,62:3
41,63:3
41,64:3
41,66:3
41,67:3
42,16:1
42,21:1
42,30:1
42,43:1
42,45:1
42,46:1
42,48:3
42,50:3
42,51:3
42,54:1
42,55:1
42,56:1
42,57:1
42,58:3
42,59:1
42,60:3
42,61:3
42,62:3
42,63:3
42,64:3
42,66:3
42,67:3
43,40:1
43,41:1
43,42:1
43,44:1
43,58:2
43,60:2
43,61:2
43,62:2
43,63:2
43,64:2
43,65:1
43,66:2
43,67:2
44,16:1
44,21:1
44,30:1
44,43:1
44,45:1
44,46:1
44,48:3
44,50:3
44,51:3
44,54:1
44,55:1
44,56:1
44,57:1
44,58:3
44,59:1
44,60:3
44,61:3
44,62:3
44,63:3
44,64:3
44,66:3
44,67:3
45,40:1
45,41:1
45,42:1
45,44:1
45,58:2
45,60:2
45,61:2
45,62:2
45,63:2
45,64:2
45,65:1
45,66:2
45,67:2
46,40:1
46,41:1
46,42:1
46,44:1
46,47:1
46,58:2
46,60:2
46,61:2
46,62:2
46,63:2
46,64:2
46,65:1
46,66:2
46,67:2
47,16:1
47,21:1
47,30:1
47,48:3
47,54:1
47,55:1
47,56:1
47,57:1
47,58:3
47,59:1
47,60:3
47,61:3
47,62:3
47,63:3
47,64:3
47,66:3
47,67:3
48,16:2
48,21:2
48,30:2
48,40:3
48,41:3
48,42:3
48,44:3
48,49:3
48,52:3
48,53:3
48,54:2
48,55:2
48,56:2
48,57:2
48,59:2
48,65:3
48,68:1
48,69:2
48,70:2
48,71:3
48,72:2
48,73:1
48,74:1
48,75:1
48,76:1
48,77:2
48,78:3
48,79:3
48,80:2
48,81:3
48,82:3
48,83:3
48,84:3
48,85:3
48,86:3
49,16:1
49,21:1
49,30:1
49,48:3
49,50:3
49,54:1
49,55:1
49,56:1
49,57:1
49,58:3
49,59:1
49,60:3
49,61:3
49,62:3
49,63:3
49,64:3
49,66:3
49,67:3
50,16:2
50,21:2
50,30:2
50,40:3
50,41:3
50,42:3
50,44:3
50,54:2
50,55:2
50,56:2
50,57:2
50,59:2
50,65:3
51,16:2
51,21:2
51,30:2
51,40:3
51,41:3
51,42:3
51,44:3
51,52:3
51,54:2
51,55:2
51,56:2
51,57:2
51,59:2
51,65:3
52,16:1
52,21:1
52,30:1
52,48:3
52,54:1
52,55:1
52,56:1
52,57:1
52,58:3
52,59:1
52,60:3
52,61:3
52,62:3
52,63:3
52,64:3
52,66:3
52,67:3
53,16:1
53,21:1
53,30:1
53,48:3
53,54:1
53,55:1
53,56:1
53,57:1
53,58:3
53,59:1
53,60:3
53,61:3
53,62:3
53,63:3
53,64:3
53,66:3
53,67:3
53,68:2
53,69:1
53,70:1
54,25:1
54,26:1
54,27:1
54,29:2
54,31:2
54,32:2
54,33:1
54,34:1
54,35:1
54,36:2
54,37:1
54,38:2
54,40:1
54,41:1
54,42:1
54,44:1
54,47:1
54,48:2
54,49:1
54,50:2
54,51:2
54,52:1
54,53:1
54,68:1
54,71:1
55,25:1
55,26:1
55,27:1
55,29:2
55,31:2
55,32:2
55,33:1
55,34:1
55,35:1
55,36:2
55,37:1
55,38:2
55,40:1
55,41:1
55,42:1
55,44:1
55,47:1
55,48:2
55,49:1
55,50:2
55,51:2
55,52:1
55,53:1
55,68:1
55,71:1
56,25:1
56,26:1
56,27:1
56,29:2
56,31:2
56,32:2
56,33:1
56,34:1
56,35:1
56,36:2
56,37:1
56,38:2
56,40:1
56,41:1
56,42:1
56,44:1
56,47:1
56,48:2
56,49:1
56,50:2
56,51:2
56,52:1
56,53:1
56,68:1
56,71:1
57,25:1
57,26:1
57,27:1
57,29:2
57,31:2
57,32:2
57,33:1
57,34:1
57,35:1
57,36:2
57,37:1
57,38:2
57,40:1
57,41:1
57,42:1
57,44:1
57,47:1
57,48:2
57,49:1
57,50:2
57,51:2
57,52:1
57,53:1
57,58:2
57,60:2
57,61:2
57,62:2
57,63:2
57,64:2
57,65:1
57,66:2
57,68:1
57,71:1
58,19:2
58,22:2
58,23:2
58,24:2
58,25:1
58,26:1
58,27:1
58,28:2
58,33:3
58,34:3
58,35:1
58,37:1
58,39:2
58,40:3
58,41:3
58,42:3
58,43:2
58,44:3
58,45:2
58,46:2
58,47:3
58,49:3
58,52:3
58,53:3
58,59:2
58,65:3
58,68:1
58,69:2
58,70:2
58,71:3
58,72:2
58,80:2
59,25:1
59,26:1
59,27:1
59,29:2
59,31:2
59,32:2
59,33:1
59,34:1
59,35:1
59,36:2
59,37:1
59,38:2
59,40:1
59,41:1
59,42:1
59,44:1
59,47:1
59,48:2
59,49:1
59,50:2
59,51:2
59,52:1
59,53:1
59,58:2
59,60:2
59,61:2
59,62:2
59,63:2
59,64:2
59,65:1
59,66:2
59,67:2
59,68:1
59,71:1
60,19:2
60,22:2
60,23:2
60,24:2
60,25:1
60,26:1
60,27:1
60,28:2
60,33:3
60,34:3
60,35:1
60,37:1
60,39:2
60,40:3
60,41:3
60,42:3
60,43:2
60,44:3
60,45:2
60,46:2
60,47:3
60,49:3
60,52:3
60,53:3
60,59:2
60,65:3
60,68:1
60,69:2
60,70:2
60,71:3
60,72:2
60,80:2
61,19:2
61,22:2
61,23:2
61,24:2
61,25:1
61,26:1
61,27:1
61,28:2
61,33:3
61,34:3
61,35:1
61,37:1
61,39:2
61,40:3
61,41:3
61,42:3
61,43:2
61,44:3
61,45:2
61,46:2
61,47:3
61,49:3
61,52:3
61,53:3
61,59:2
61,65:3
61,68:1
61,69:2
61,70:2
61,71:3
61,72:2
61,80:2
62,19:2
62,22:2
62,23:2
62,24:2
62,25:1
62,26:1
62,27:1
62,28:2
62,33:3
62,34:3
62,35:1
62,37:1
62,39:2
62,40:3
62,41:3
62,42:3
62,43:2
62,44:3
62,45:2
62,46:2
62,47:3
62,49:3
62,52:3
62,53:3
62,59:2
62,65:3
62,68:1
62,69:2
62,70:2
62,71:3
62,72:2
62,80:2
63,19:2
63,22:2
63,23:2
63,24:2
63,25:1
63,26:1
63,27:1
63,28:2
63,33:3
63,34:3
63,35:1
63,37:1
63,39:2
63,40:3
63,41:3
63,42:3
63,43:2
63,44:3
63,45:2
63,46:2
63,47:3
63,49:3
63,52:3
63,53:3
63,59:2
63,65:3
63,68:1
63,69:2
63,70:2
63,71:3
63,72:2
63,80:2
64,19:2
64,22:2
64,23:2
64,24:2
64,25:1
64,26:1
64,27:1
64,28:2
64,33:3
64,34:3
64,35:1
64,37:1
64,39:2
64,40:3
64,41:3
64,42:3
64,43:2
64,44:3
64,45:2
64,46:2
64,47:3
64,49:3
64,52:3
64,53:3
64,59:2
64,65:3
64,68:1
64,69:2
64,70:2
64,71:3
64,72:2
64,80:2
65,19:1
65,22:1
65,23:1
65,24:1
65,25:2
65,26:2
65,27:2
65,28:1
65,29:3
65,31:3
65,32:3
65,35:2
65,36:3
65,37:2
65,38:3
65,39:1
65,43:1
65,45:1
65,46:1
65,48:3
65,50:3
65,51:3
65,58:3
65,59:1
65,60:3
65,61:3
65,62:3
65,63:3
65,64:3
65,66:3
65,67:3
65,68:2
65,69:1
65,70:1
65,72:1
65,80:1
66,19:2
66,22:2
66,23:2
66,24:2
66,25:1
66,26:1
66,27:1
66,28:2
66,33:3
66,34:3
66,35:1
66,37:1
66,39:2
66,40:3
66,41:3
66,42:3
66,43:2
66,44:3
66,45:2
66,46:2
66,47:3
66,49:3
66,52:3
66,53:3
66,59:2
66,65:3
66,68:1
66,69:2
66,70:2
66,71:3
66,72:2
66,80:2
67,19:2
67,22:2
67,23:2
67,24:2
67,25:1
67,26:1
67,27:1
67,28:2
67,33:3
67,34:3
67,35:1
67,37:1
67,39:2
67,40:3
67,41:3
67,42:3
67,43:2
67,44:3
67,45:2
67,46:2
67,47:3
67,49:3
67,52:3
67,53:3
67,68:1
67,69:2
67,70:2
67,71:3
67,72:2
67,73:1
67,80:2
68,16:1
68,21:1
68,30:1
68,48:1
68,54:1
68,55:1
68,56:1
68,57:1
68,58:1
68,59:1
68,60:1
68,61:1
68,62:1
68,63:1
68,64:1
68,65:2
68,66:1
68,67:1
68,69:1
68,70:1
68,71:2
68,72:1
68,77:1
69,48:2
69,58:2
69,60:2
69,61:2
69,62:2
69,63:2
69,64:2
69,65:1
69,66:2
69,67:2
69,68:1
69,71:1
69,73:1
69,74:1
69,75:1
69,76:1
70,48:2
70,58:2
70,60:2
70,61:2
70,62:2
70,63:2
70,64:2
70,65:1
70,66:2
70,67:2
70,68:1
70,71:1
70,73:1
70,74:1
70,75:1
70,76:1
71,16:1
71,21:1
71,30:1
71,48:3
71,54:1
71,55:1
71,56:1
71,57:1
71,58:3
71,59:1
71,60:3
71,61:3
71,62:3
71,63:3
71,64:3
71,66:3
71,67:3
71,68:2
71,69:1
71,70:1
71,72:1
71,73:2
71,80:1
72,48:2
72,58:2
72,60:2
72,61:2
72,62:2
72,63:2
72,64:2
72,65:1
72,66:2
72,67:2
72,71:1
72,73:1
72,74:1
72,75:1
72,76:1
72,78:1
73,48:1
73,69:1
73,70:1
73,72:1
73,80:1
74,48:1
74,69:1
74,70:1
74,72:1
74,80:1
75,48:1
75,69:1
75,70:1
75,72:1
75,77:1
75,80:1
76,48:1
76,69:1
76,70:1
76,72:1
76,77:1
76,78:2
76,79:2
76,80:1
76,81:2
77,48:2
77,68:1
77,76:1
77,78:1
78,48:3
78,76:2
78,80:1
79,48:3
79,76:2
79,80:1
80,48:2
80,58:2
80,60:2
80,61:2
80,62:2
80,63:2
80,64:2
80,65:1
80,66:2
80,67:2
80,71:1
80,73:1
80,74:1
80,75:1
80,76:1
80,78:1
80,79:1
80,81:1
81,48:3
82,48:3
83,48:3
84,48:3
85,48:3
86,48:3
86,87:3

<setup times backward>
5,1:1
5,2:1
5,3:1
5,4:1
5,6:1
5,8:1
5,9:2
5,30:1
6,9:1
6,10:1
7,1:1
7,2:1
7,3:1
7,4:1
7,6:1
7,8:1
7,9:2
7,10:2
7,30:1
8,9:1
8,10:1
8,14:1
8,15:1
11,1:1
11,2:1
11,3:1
11,4:1
11,6:1
11,8:1
11,9:2
11,10:2
11,30:1
12,1:1
12,2:1
12,3:1
12,4:1
12,6:1
12,8:1
12,9:2
12,10:2
12,30:1
13,1:1
13,2:1
13,3:1
13,4:1
13,6:1
13,8:1
13,9:2
13,10:2
13,30:1
16,9:1
16,10:1
16,14:1
16,15:1
16,25:1
16,26:1
16,27:1
16,29:2
16,31:2
16,32:2
16,35:1
16,36:2
16,37:1
16,38:2
16,48:2
16,50:2
16,51:2
16,68:1
17,9:1
17,10:1
17,14:1
17,15:1
18,9:1
18,10:1
18,14:1
18,15:1
19,9:1
19,10:1
19,14:1
19,15:1
19,58:2
19,60:2
19,61:2
19,62:2
19,63:2
19,64:2
19,66:2
19,67:2
20,9:1
20,10:1
20,14:1
20,15:1
20,25:1
20,26:1
20,27:1
21,9:1
21,10:1
21,14:1
21,15:1
21,25:1
21,26:1
21,27:1
21,29:2
21,31:2
21,32:2
21,35:1
21,36:2
21,37:1
21,38:2
21,48:2
21,50:2
21,51:2
21,68:1
22,9:1
22,10:1
22,14:1
22,15:1
22,58:2
22,60:2
22,61:2
22,62:2
22,63:2
22,64:2
22,66:2
22,67:2
23,9:1
23,10:1
23,14:1
23,15:1
23,58:2
23,60:2
23,61:2
23,62:2
23,63:2
23,64:2
23,66:2
23,67:2
24,9:1
24,10:1
24,14:1
24,15:1
24,58:2
24,60:2
24,61:2
24,62:2
24,63:2
24,64:2
24,66:2
24,67:2
25,58:1
25,60:1
25,61:1
25,62:1
25,63:1
25,64:1
25,66:1
25,67:1
26,29:1
26,31:1
26,32:1
26,36:1
26,58:1
26,60:1
26,61:1
26,62:1
26,63:1
26,64:1
26,66:1
26,67:1
27,29:1
27,31:1
27,32:1
27,58:1
27,60:1
27,61:1
27,62:1
27,63:1
27,64:1
27,66:1
27,67:1
28,9:1
28,10:1
28,14:1
28,15:1
28,25:1
28,26:1
28,27:1
28,58:2
28,60:2
28,61:2
28,62:2
28,63:2
28,64:2
28,66:2
28,67:2
30,9:1
30,10:1
30,14:1
30,15:1
30,25:1
30,26:1
30,27:1
30,29:2
30,31:2
30,32:2
30,35:1
30,36:2
30,37:1
30,38:2
30,48:2
30,50:2
30,51:2
30,68:1
33,1:1
33,2:1
33,3:1
33,4:1
33,6:1
33,8:1
33,9:2
33,10:2
33,14:2
33,15:2
33,16:1
33,17:1
33,18:1
33,19:1
33,20:1
33,21:1
33,22:1
33,23:1
33,24:1
33,25:2
33,26:2
33,27:2
33,28:1
33,29:3
33,30:1
33,31:3
33,32:3
33,54:1
33,55:1
33,56:1
33,57:1
33,58:3
33,59:1
33,60:3
33,61:3
33,62:3
33,63:3
33,64:3
33,66:3
33,67:3
34,1:1
34,2:1
34,3:1
34,4:1
34,6:1
34,8:1
34,9:2
34,10:2
34,14:2
34,15:2
34,16:1
34,17:1
34,18:1
34,19:1
34,20:1
34,21:1
34,22:1
34,23:1
34,24:1
34,25:2
34,26:2
34,27:2
34,28:1
34,29:3
34,30:1
34,31:3
34,32:3
34,54:1
34,55:1
34,56:1
34,57:1
34,58:3
34,59:1
34,60:3
34,61:3
34,62:3
34,63:3
34,64:3
34,66:3
34,67:3
35,29:1
35,31:1
35,32:1
35,58:1
35,60:1
35,61:1
35,62:1
35,63:1
35,64:1
35,66:1
35,67:1
37,29:1
37,31:1
37,32:1
37,36:1
37,58:1
37,60:1
37,61:1
37,62:1
37,63:1
37,64:1
37,66:1
37,67:1
39,9:1
39,10:1
39,14:1
39,15:1
39,25:1
39,26:1
39,27:1
39,29:2
39,31:2
39,32:2
39,35:1
39,36:2
39,37:1
39,38:2
39,58:2
39,60:2
39,61:2
39,62:2
39,63:2
39,64:2
39,66:2
39,67:2
40,1:1
40,2:1
40,3:1
40,4:1
40,6:1
40,8:1
40,9:2
40,10:2
40,14:2
40,15:2
40,16:1
40,17:1
40,18:1
40,19:1
40,20:1
40,21:1
40,22:1
40,23:1
40,24:1
40,25:2
40,26:2
40,27:2
40,28:1
40,29:3
40,30:1
40,31:3
40,32:3
40,35:2
40,36:3
40,37:2
40,38:3
40,39:1
40,43:1
40,45:1
40,46:1
40,48:3
40,50:3
40,51:3
40,54:1
40,55:1
40,56:1
40,57:1
40,58:3
40,59:1
40,60:3
40,61:3
40,62:3
40,63:3
40,64:3
40,66:3
40,67:3
41,1:1
41,2:1
41,3:1
41,4:1
41,6:1
41,8:1
41,9:2
41,10:2
41,14:2
41,15:2
41,16:1
41,17:1
41,18:1
41,19:1
41,20:1
41,21:1
41,22:1
41,23:1
41,24:1
41,25:2
41,26:2
41,27:2
41,28:1
41,29:3
41,30:1
41,31:3
41,32:3
41,35:2
41,36:3
41,37:2
41,38:3
41,39:1
41,43:1
41,45:1
41,46:1
41,48:3
41,50:3
41,51:3
41,54:1
41,55:1
41,56:1
41,57:1
41,58:3
41,59:1
41,60:3
41,61:3
41,62:3
41,63:3
41,64:3
41,66:3
41,67:3
42,1:1
42,2:1
42,3:1
42,4:1
42,6:1
42,8:1
42,9:2
42,10:2
42,14:2
42,15:2
42,16:1
42,17:1
42,18:1
42,19:1
42,20:1
42,21:1
42,22:1
42,23:1
42,24:1
42,25:2
42,26:2
42,27:2
42,28:1
42,29:3
42,30:1
42,31:3
42,32:3
42,35:2
42,36:3
42,37:2
42,38:3
42,39:1
42,43:1
42,45:1
42,46:1
42,48:3
42,50:3
42,51:3
42,54:1
42,55:1
42,56:1
42,57:1
42,58:3
42,59:1
42,60:3
42,61:3
42,62:3
42,63:3
42,64:3
42,66:3
42,67:3
43,9:1
43,10:1
43,14:1
43,15:1
43,25:1
43,26:1
43,27:1
43,29:2
43,31:2
43,32:2
43,35:1
43,36:2
43,37:1
43,38:2
43,58:2
43,60:2
43,61:2
43,62:2
43,63:2
43,64:2
43,66:2
43,67:2
44,1:1
44,2:1
44,3:1
44,4:1
44,6:1
44,8:1
44,9:2
44,10:2
44,14:2
44,15:2
44,16:1
44,17:1
44,18:1
44,19:1
44,20:1
44,21:1
44,22:1
44,23:1
44,24:1
44,25:2
44,26:2
44,27:2
44,28:1
44,29:3
44,30:1
44,31:3
44,32:3
44,35:2
44,36:3
44,37:2
44,38:3
44,39:1
44,43:1
44,45:1
44,46:1
44,48:3
44,50:3
44,51:3
44,54:1
44,55:1
44,56:1
44,57:1
44,58:3
44,59:1
44,60:3
44,61:3
44,62:3
44,63:3
44,64:3
44,66:3
44,67:3
45,9:1
45,10:1
45,14:1
45,15:1
45,25:1
45,26:1
45,27:1
45,29:2
45,31:2
45,32:2
45,35:1
45,36:2
45,37:1
45,38:2
45,58:2
45,60:2
45,61:2
45,62:2
45,63:2
45,64:2
45,66:2
45,67:2
46,9:1
46,10:1
46,14:1
46,15:1
46,25:1
46,26:1
46,27:1
46,29:2
46,31:2
46,32:2
46,35:1
46,36:2
46,37:1
46,38:2
46,58:2
46,60:2
46,61:2
46,62:2
46,63:2
46,64:2
46,66:2
46,67:2
47,1:1
47,2:1
47,3:1
47,4:1
47,6:1
47,8:1
47,9:2
47,10:2
47,14:2
47,15:2
47,16:1
47,17:1
47,18:1
47,19:1
47,20:1
47,21:1
47,22:1
47,23:1
47,24:1
47,25:2
47,26:2
47,27:2
47,28:1
47,29:3
47,30:1
47,31:3
47,32:3
47,35:2
47,36:3
47,37:2
47,38:3
47,39:1
47,43:1
47,45:1
47,46:1
47,54:1
47,55:1
47,56:1
47,57:1
47,58:3
47,59:1
47,60:3
47,61:3
47,62:3
47,63:3
47,64:3
47,66:3
47,67:3
49,1:1
49,2:1
49,3:1
49,4:1
49,6:1
49,8:1
49,9:2
49,10:2
49,14:2
49,15:2
49,16:1
49,17:1
49,18:1
49,19:1
49,20:1
49,21:1
49,22:1
49,23:1
49,24:1
49,25:2
49,26:2
49,27:2
49,28:1
49,29:3
49,30:1
49,31:3
49,32:3
49,35:2
49,36:3
49,37:2
49,38:3
49,39:1
49,43:1
49,45:1
49,46:1
49,48:3
49,54:1
49,55:1
49,56:1
49,57:1
49,58:3
49,59:1
49,60:3
49,61:3
49,62:3
49,63:3
49,64:3
49,66:3
49,67:3
52,1:1
52,2:1
52,3:1
52,4:1
52,6:1
52,8:1
52,9:2
52,10:2
52,14:2
52,15:2
52,16:1
52,17:1
52,18:1
52,19:1
52,20:1
52,21:1
52,22:1
52,23:1
52,24:1
52,25:2
52,26:2
52,27:2
52,28:1
52,29:3
52,30:1
52,31:3
52,32:3
52,35:2
52,36:3
52,37:2
52,38:3
52,39:1
52,43:1
52,45:1
52,46:1
52,48:3
52,50:3
52,51:3
52,54:1
52,55:1
52,56:1
52,57:1
52,58:3
52,59:1
52,60:3
52,61:3
52,62:3
52,63:3
52,64:3
52,66:3
52,67:3
53,1:1
53,2:1
53,3:1
53,4:1
53,6:1
53,8:1
53,9:2
53,10:2
53,14:2
53,15:2
53,16:1
53,17:1
53,18:1
53,19:1
53,20:1
53,21:1
53,22:1
53,23:1
53,24:1
53,25:2
53,26:2
53,27:2
53,28:1
53,29:3
53,30:1
53,31:3
53,32:3
53,35:2
53,36:3
53,37:2
53,38:3
53,39:1
53,43:1
53,45:1
53,46:1
53,48:3
53,50:3
53,51:3
53,54:1
53,55:1
53,56:1
53,57:1
53,58:3
53,59:1
53,60:3
53,61:3
53,62:3
53,63:3
53,64:3
53,66:3
53,67:3
54,9:1
54,10:1
54,14:1
54,15:1
54,25:1
54,26:1
54,27:1
54,29:2
54,31:2
54,32:2
54,35:1
54,36:2
54,37:1
54,38:2
54,48:2
54,50:2
54,51:2
54,68:1
55,9:1
55,10:1
55,14:1
55,15:1
55,25:1
55,26:1
55,27:1
55,29:2
55,31:2
55,32:2
55,35:1
55,36:2
55,37:1
55,38:2
55,48:2
55,50:2
55,51:2
55,68:1
56,9:1
56,10:1
56,14:1
56,15:1
56,25:1
56,26:1
56,27:1
56,29:2
56,31:2
56,32:2
56,35:1
56,36:2
56,37:1
56,38:2
56,48:2
56,50:2
56,51:2
56,68:1
57,9:1
57,10:1
57,14:1
57,15:1
57,25:1
57,26:1
57,27:1
57,29:2
57,31:2
57,32:2
57,35:1
57,36:2
57,37:1
57,38:2
57,48:2
57,50:2
57,51:2
57,68:1
59,9:1
59,10:1
59,14:1
59,15:1
59,25:1
59,26:1
59,27:1
59,29:2
59,31:2
59,32:2
59,35:1
59,36:2
59,37:1
59,38:2
59,48:2
59,50:2
59,51:2
59,58:2
59,60:2
59,61:2
59,62:2
59,63:2
59,64:2
59,66:2
59,68:1
65,1:1
65,2:1
65,3:1
65,4:1
65,6:1
65,8:1
65,9:2
65,10:2
65,14:2
65,15:2
65,16:1
65,17:1
65,18:1
65,19:1
65,20:1
65,21:1
65,22:1
65,23:1
65,24:1
65,25:2
65,26:2
65,27:2
65,28:1
65,29:3
65,30:1
65,31:3
65,32:3
65,35:2
65,36:3
65,37:2
65,38:3
65,39:1
65,43:1
65,45:1
65,46:1
65,48:3
65,50:3
65,51:3
65,54:1
65,55:1
65,56:1
65,57:1
65,58:3
65,59:1
65,60:3
65,61:3
65,62:3
65,63:3
65,64:3
65,66:3
65,68:2
65,69:1
65,70:1
65,72:1
65,80:1
68,29:1
68,31:1
68,32:1
68,36:1
68,38:1
68,48:1
68,50:1
68,51:1
68,58:1
68,60:1
68,61:1
68,62:1
68,63:1
68,64:1
68,66:1
68,67:1
69,9:1
69,10:1
69,14:1
69,15:1
69,25:1
69,26:1
69,27:1
69,29:2
69,31:2
69,32:2
69,35:1
69,36:2
69,37:1
69,38:2
69,48:2
69,50:2
69,51:2
69,58:2
69,60:2
69,61:2
69,62:2
69,63:2
69,64:2
69,66:2
69,67:2
69,68:1
69,73:1
69,74:1
69,75:1
69,76:1
70,9:1
70,10:1
70,14:1
70,15:1
70,25:1
70,26:1
70,27:1
70,29:2
70,31:2
70,32:2
70,35:1
70,36:2
70,37:1
70,38:2
70,48:2
70,50:2
70,51:2
70,58:2
70,60:2
70,61:2
70,62:2
70,63:2
70,64:2
70,66:2
70,67:2
70,68:1
70,73:1
70,74:1
70,75:1
70,76:1
71,1:1
71,2:1
71,3:1
71,4:1
71,6:1
71,8:1
71,9:2
71,10:2
71,14:2
71,15:2
71,16:1
71,17:1
71,18:1
71,19:1
71,20:1
71,21:1
71,22:1
71,23:1
71,24:1
71,25:2
71,26:2
71,27:2
71,28:1
71,29:3
71,30:1
71,31:3
71,32:3
71,35:2
71,36:3
71,37:2
71,38:3
71,39:1
71,43:1
71,45:1
71,46:1
71,48:3
71,50:3
71,51:3
71,54:1
71,55:1
71,56:1
71,57:1
71,58:3
71,59:1
71,60:3
71,61:3
71,62:3
71,63:3
71,64:3
71,66:3
71,67:3
71,68:2
71,69:1
71,70:1
71,72:1
71,80:1
72,9:1
72,10:1
72,14:1
72,15:1
72,25:1
72,26:1
72,27:1
72,29:2
72,31:2
72,32:2
72,35:1
72,36:2
72,37:1
72,38:2
72,48:2
72,50:2
72,51:2
72,58:2
72,60:2
72,61:2
72,62:2
72,63:2
72,64:2
72,66:2
72,67:2
72,68:1
72,73:1
72,74:1
72,75:1
72,76:1
73,29:1
73,31:1
73,32:1
73,36:1
73,38:1
73,48:1
73,50:1
73,51:1
73,58:1
73,60:1
73,61:1
73,62:1
73,63:1
73,64:1
73,66:1
73,67:1
74,29:1
74,31:1
74,32:1
74,36:1
74,38:1
74,48:1
74,50:1
74,51:1
74,58:1
74,60:1
74,61:1
74,62:1
74,63:1
74,64:1
74,66:1
74,67:1
75,29:1
75,31:1
75,32:1
75,36:1
75,38:1
75,48:1
75,50:1
75,51:1
75,58:1
75,60:1
75,61:1
75,62:1
75,63:1
75,64:1
75,66:1
75,67:1
76,29:1
76,31:1
76,32:1
76,36:1
76,38:1
76,48:1
76,50:1
76,51:1
76,58:1
76,60:1
76,61:1
76,62:1
76,63:1
76,64:1
76,66:1
76,67:1
77,9:1
77,10:1
77,14:1
77,15:1
77,25:1
77,26:1
77,27:1
77,29:2
77,31:2
77,32:2
77,35:1
77,36:2
77,37:1
77,38:2
77,48:2
77,50:2
77,51:2
77,58:2
77,60:2
77,61:2
77,62:2
77,63:2
77,64:2
77,66:2
77,67:2
77,68:1
77,73:1
77,74:1
77,75:1
77,76:1
78,1:1
78,2:1
78,3:1
78,4:1
78,6:1
78,8:1
78,9:2
78,10:2
78,14:2
78,15:2
78,16:1
78,17:1
78,18:1
78,19:1
78,20:1
78,21:1
78,22:1
78,23:1
78,24:1
78,25:2
78,26:2
78,27:2
78,28:1
78,29:3
78,30:1
78,31:3
78,32:3
78,35:2
78,36:3
78,37:2
78,38:3
78,39:1
78,43:1
78,45:1
78,46:1
78,48:3
78,50:3
78,51:3
78,54:1
78,55:1
78,56:1
78,57:1
78,58:3
78,59:1
78,60:3
78,61:3
78,62:3
78,63:3
78,64:3
78,66:3
78,67:3
78,68:2
78,69:1
78,70:1
78,72:1
78,73:2
78,74:2
78,75:2
78,76:2
78,77:1
78,80:1
79,1:1
79,2:1
79,3:1
79,4:1
79,6:1
79,8:1
79,9:2
79,10:2
79,14:2
79,15:2
79,16:1
79,17:1
79,18:1
79,19:1
79,20:1
79,21:1
79,22:1
79,23:1
79,24:1
79,25:2
79,26:2
79,27:2
79,28:1
79,29:3
79,30:1
79,31:3
79,32:3
79,35:2
79,36:3
79,37:2
79,38:3
79,39:1
79,43:1
79,45:1
79,46:1
79,48:3
79,50:3
79,51:3
79,54:1
79,55:1
79,56:1
79,57:1
79,58:3
79,59:1
79,60:3
79,61:3
79,62:3
79,63:3
79,64:3
79,66:3
79,67:3
79,68:2
79,69:1
79,70:1
79,72:1
79,73:2
79,74:2
79,75:2
79,76:2
79,77:1
79,80:1
80,9:1
80,10:1
80,14:1
80,15:1
80,25:1
80,26:1
80,27:1
80,29:2
80,31:2
80,32:2
80,35:1
80,36:2
80,37:1
80,38:2
80,48:2
80,50:2
80,51:2
80,58:2
80,60:2
80,61:2
80,62:2
80,63:2
80,64:2
80,66:2
80,67:2
80,68:1
80,73:1
80,74:1
80,75:1
80,76:1
81,1:1
81,2:1
81,3:1
81,4:1
81,6:1
81,8:1
81,9:2
81,10:2
81,14:2
81,15:2
81,16:1
81,17:1
81,18:1
81,19:1
81,20:1
81,21:1
81,22:1
81,23:1
81,24:1
81,25:2
81,26:2
81,27:2
81,28:1
81,29:3
81,30:1
81,31:3
81,32:3
81,35:2
81,36:3
81,37:2
81,38:3
81,39:1
81,43:1
81,45:1
81,46:1
81,48:3
81,50:3
81,51:3
81,54:1
81,55:1
81,56:1
81,57:1
81,58:3
81,59:1
81,60:3
81,61:3
81,62:3
81,63:3
81,64:3
81,66:3
81,67:3
81,68:2
81,69:1
81,70:1
81,72:1
81,73:2
81,74:2
81,75:2
81,76:2
81,77:1
81,80:1
82,1:1
82,2:1
82,3:1
82,4:1
82,6:1
82,8:1
82,9:2
82,10:2
82,14:2
82,15:2
82,16:1
82,17:1
82,18:1
82,19:1
82,20:1
82,21:1
82,22:1
82,23:1
82,24:1
82,25:2
82,26:2
82,27:2
82,28:1
82,29:3
82,30:1
82,31:3
82,32:3
82,35:2
82,36:3
82,37:2
82,38:3
82,39:1
82,43:1
82,45:1
82,46:1
82,48:3
82,50:3
82,51:3
82,54:1
82,55:1
82,56:1
82,57:1
82,58:3
82,59:1
82,60:3
82,61:3
82,62:3
82,63:3
82,64:3
82,66:3
82,67:3
82,68:2
82,69:1
82,70:1
82,72:1
82,73:2
82,74:2
82,75:2
82,76:2
82,77:1
82,80:1
83,1:1
83,2:1
83,3:1
83,4:1
83,6:1
83,8:1
83,9:2
83,10:2
83,14:2
83,15:2
83,16:1
83,17:1
83,18:1
83,19:1
83,20:1
83,21:1
83,22:1
83,23:1
83,24:1
83,25:2
83,26:2
83,27:2
83,28:1
83,29:3
83,30:1
83,31:3
83,32:3
83,35:2
83,36:3
83,37:2
83,38:3
83,39:1
83,43:1
83,45:1
83,46:1
83,48:3
83,50:3
83,51:3
83,54:1
83,55:1
83,56:1
83,57:1
83,58:3
83,59:1
83,60:3
83,61:3
83,62:3
83,63:3
83,64:3
83,66:3
83,67:3
83,68:2
83,69:1
83,70:1
83,72:1
83,73:2
83,74:2
83,75:2
83,76:2
83,77:1
83,80:1
84,1:1
84,2:1
84,3:1
84,4:1
84,6:1
84,8:1
84,9:2
84,10:2
84,14:2
84,15:2
84,16:1
84,17:1
84,18:1
84,19:1
84,20:1
84,21:1
84,22:1
84,23:1
84,24:1
84,25:2
84,26:2
84,27:2
84,28:1
84,29:3
84,30:1
84,31:3
84,32:3
84,35:2
84,36:3
84,37:2
84,38:3
84,39:1
84,43:1
84,45:1
84,46:1
84,48:3
84,50:3
84,51:3
84,54:1
84,55:1
84,56:1
84,57:1
84,58:3
84,59:1
84,60:3
84,61:3
84,62:3
84,63:3
84,64:3
84,66:3
84,67:3
84,68:2
84,69:1
84,70:1
84,72:1
84,73:2
84,74:2
84,75:2
84,76:2
84,77:1
84,80:1
85,1:1
85,2:1
85,3:1
85,4:1
85,6:1
85,8:1
85,9:2
85,10:2
85,14:2
85,15:2
85,16:1
85,17:1
85,18:1
85,19:1
85,20:1
85,21:1
85,22:1
85,23:1
85,24:1
85,25:2
85,26:2
85,27:2
85,28:1
85,29:3
85,30:1
85,31:3
85,32:3
85,35:2
85,36:3
85,37:2
85,38:3
85,39:1
85,43:1
85,45:1
85,46:1
85,48:3
85,50:3
85,51:3
85,54:1
85,55:1
85,56:1
85,57:1
85,58:3
85,59:1
85,60:3
85,61:3
85,62:3
85,63:3
85,64:3
85,66:3
85,67:3
85,68:2
85,69:1
85,70:1
85,72:1
85,73:2
85,74:2
85,75:2
85,76:2
85,77:1
85,80:1
86,1:1
86,2:1
86,3:1
86,4:1
86,6:1
86,8:1
86,9:2
86,10:2
86,14:2
86,15:2
86,16:1
86,17:1
86,18:1
86,19:1
86,20:1
86,21:1
86,22:1
86,23:1
86,24:1
86,25:2
86,26:2
86,27:2
86,28:1
86,29:3
86,30:1
86,31:3
86,32:3
86,35:2
86,36:3
86,37:2
86,38:3
86,39:1
86,43:1
86,45:1
86,46:1
86,48:3
86,50:3
86,51:3
86,54:1
86,55:1
86,56:1
86,57:1
86,58:3
86,59:1
86,60:3
86,61:3
86,62:3
86,63:3
86,64:3
86,66:3
86,67:3
86,68:2
86,69:1
86,70:1
86,72:1
86,73:2
86,74:2
86,75:2
86,76:2
86,77:1
86,80:1

<end>

<optimal SALBP-1 value>
22


<rand seed>
467321153

<Lower Bounds>
Lm1=21
Lms1=21
Lm2=5
Lm3=11
Lm4=21
Best=21

<Optimal Stations (Iterations: 10)>
25
